100 2436
1 2 1
1 3 1
1 4 1
1 6 1
1 10 1
1 11 -1
1 12 -1
1 13 1
1 16 1
1 17 1
1 18 1
1 20 -1
1 21 1
1 23 -1
1 24 1
1 26 -1
1 27 -1
1 29 1
1 31 1
1 34 -1
1 37 -1
1 38 -1
1 41 -1
1 42 1
1 45 -1
1 47 1
1 48 -1
1 49 1
1 51 -1
1 52 -1
1 53 -1
1 59 -1
1 60 -1
1 61 1
1 63 1
1 65 1
1 68 -1
1 69 1
1 72 1
1 73 1
1 74 -1
1 77 1
1 79 -1
1 82 1
1 84 1
1 85 -1
1 86 1
1 88 -1
1 92 1
1 93 -1
1 95 1
1 96 1
1 100 1
2 4 -1
2 5 -1
2 6 1
2 13 -1
2 18 1
2 20 -1
2 22 1
2 24 1
2 25 -1
2 26 -1
2 27 -1
2 30 -1
2 31 1
2 32 1
2 33 1
2 36 1
2 37 1
2 41 1
2 44 1
2 46 -1
2 47 1
2 49 -1
2 50 -1
2 51 1
2 53 1
2 56 -1
2 59 -1
2 61 1
2 62 1
2 64 1
2 65 -1
2 66 1
2 67 1
2 68 -1
2 69 1
2 75 1
2 76 1
2 77 1
2 79 1
2 80 1
2 82 -1
2 84 -1
2 85 1
2 87 -1
2 88 -1
2 91 1
2 94 1
2 96 -1
3 4 1
3 6 -1
3 7 1
3 9 1
3 10 1
3 11 1
3 12 -1
3 14 -1
3 15 -1
3 16 -1
3 17 -1
3 19 1
3 20 -1
3 21 -1
3 22 -1
3 25 -1
3 28 -1
3 29 1
3 30 1
3 31 1
3 34 -1
3 35 -1
3 38 1
3 39 -1
3 40 1
3 41 -1
3 45 1
3 49 -1
3 52 -1
3 53 1
3 54 -1
3 55 1
3 58 1
3 59 1
3 61 1
3 62 -1
3 63 -1
3 64 1
3 65 -1
3 66 1
3 72 1
3 73 -1
3 74 -1
3 75 -1
3 76 -1
3 77 -1
3 79 -1
3 81 1
3 82 1
3 83 -1
3 84 -1
3 86 1
3 89 1
3 92 1
3 93 -1
3 96 1
4 6 -1
4 7 1
4 9 -1
4 10 1
4 11 1
4 12 -1
4 14 -1
4 16 1
4 17 -1
4 18 1
4 19 -1
4 22 -1
4 24 -1
4 25 -1
4 26 1
4 27 -1
4 30 1
4 39 1
4 41 1
4 43 1
4 46 1
4 47 -1
4 54 -1
4 55 -1
4 57 1
4 60 -1
4 62 -1
4 65 -1
4 68 -1
4 69 -1
4 70 -1
4 75 -1
4 79 -1
4 80 1
4 81 -1
4 84 -1
4 85 1
4 92 1
4 93 1
4 94 -1
4 96 -1
4 97 -1
4 99 -1
5 6 -1
5 7 1
5 15 1
5 16 1
5 17 -1
5 19 -1
5 20 1
5 21 1
5 22 -1
5 23 -1
5 25 -1
5 26 1
5 27 -1
5 28 -1
5 30 1
5 32 -1
5 33 1
5 35 -1
5 36 -1
5 37 -1
5 38 1
5 39 -1
5 41 -1
5 42 -1
5 44 1
5 46 -1
5 47 -1
5 48 1
5 49 1
5 51 1
5 53 -1
5 54 -1
5 64 1
5 65 -1
5 66 1
5 68 1
5 69 -1
5 70 1
5 71 1
5 74 -1
5 78 1
5 88 -1
5 89 1
5 91 1
5 98 1
6 7 -1
6 11 1
6 13 1
6 14 -1
6 15 -1
6 17 -1
6 25 -1
6 28 1
6 29 -1
6 30 -1
6 36 1
6 38 1
6 39 -1
6 40 -1
6 41 1
6 43 1
6 44 -1
6 45 1
6 46 1
6 48 1
6 49 1
6 50 1
6 51 -1
6 54 1
6 59 1
6 60 -1
6 64 -1
6 65 1
6 68 1
6 69 1
6 70 -1
6 73 1
6 75 -1
6 76 1
6 78 1
6 81 -1
6 83 1
6 85 -1
6 86 1
6 88 -1
6 89 1
6 90 1
6 97 -1
6 98 -1
6 99 1
7 8 1
7 11 1
7 12 -1
7 13 1
7 15 -1
7 19 -1
7 20 1
7 22 1
7 24 1
7 25 1
7 26 -1
7 27 -1
7 34 1
7 35 -1
7 36 1
7 37 -1
7 40 1
7 42 -1
7 43 -1
7 45 -1
7 48 1
7 50 1
7 51 -1
7 53 1
7 55 1
7 57 -1
7 58 -1
7 60 1
7 61 1
7 62 1
7 63 1
7 64 -1
7 65 -1
7 67 -1
7 68 -1
7 70 -1
7 74 -1
7 75 -1
7 76 1
7 78 1
7 80 -1
7 82 1
7 84 1
7 85 1
7 86 1
7 88 1
7 89 1
7 91 1
7 94 -1
7 96 1
7 98 -1
7 99 1
8 9 1
8 10 1
8 12 1
8 13 -1
8 14 -1
8 15 -1
8 16 -1
8 19 1
8 21 1
8 22 -1
8 23 -1
8 24 -1
8 25 1
8 28 1
8 30 -1
8 31 -1
8 32 -1
8 33 1
8 34 -1
8 35 -1
8 39 -1
8 40 -1
8 41 1
8 43 1
8 46 -1
8 47 -1
8 49 1
8 50 1
8 54 -1
8 57 1
8 59 1
8 60 1
8 61 -1
8 65 -1
8 68 -1
8 71 -1
8 73 -1
8 75 -1
8 78 -1
8 80 -1
8 84 -1
8 86 -1
8 87 -1
8 89 -1
8 90 1
8 91 1
8 92 1
8 93 1
8 95 -1
8 96 -1
8 97 -1
8 98 1
8 99 -1
8 100 -1
9 11 1
9 14 1
9 16 -1
9 20 1
9 21 1
9 22 1
9 23 -1
9 24 -1
9 25 -1
9 27 1
9 29 -1
9 30 1
9 31 1
9 35 -1
9 36 1
9 37 -1
9 39 -1
9 41 -1
9 44 -1
9 46 1
9 49 -1
9 56 -1
9 57 -1
9 60 -1
9 61 -1
9 63 -1
9 65 -1
9 66 -1
9 68 1
9 69 1
9 71 1
9 72 -1
9 73 -1
9 76 1
9 80 1
9 81 -1
9 82 -1
9 83 1
9 87 1
9 88 -1
9 89 1
9 93 -1
9 98 1
10 11 1
10 12 -1
10 15 1
10 16 1
10 20 -1
10 22 1
10 24 -1
10 26 -1
10 28 1
10 31 1
10 32 -1
10 35 1
10 36 1
10 39 -1
10 40 1
10 42 -1
10 43 1
10 44 1
10 45 -1
10 47 -1
10 48 1
10 49 -1
10 50 -1
10 53 1
10 54 1
10 55 1
10 56 -1
10 59 1
10 60 1
10 61 -1
10 62 1
10 64 1
10 65 -1
10 66 -1
10 67 -1
10 69 -1
10 70 1
10 72 1
10 77 -1
10 78 -1
10 81 1
10 82 -1
10 83 1
10 84 -1
10 85 -1
10 89 -1
10 90 1
10 92 -1
10 95 1
10 96 1
10 97 -1
10 98 1
10 100 1
11 13 -1
11 14 1
11 15 1
11 17 -1
11 18 1
11 22 1
11 25 -1
11 26 1
11 31 1
11 34 1
11 37 1
11 39 1
11 42 1
11 44 1
11 45 -1
11 46 1
11 49 1
11 50 -1
11 56 1
11 59 -1
11 62 -1
11 63 1
11 64 1
11 67 -1
11 69 -1
11 72 1
11 75 -1
11 76 1
11 77 -1
11 80 -1
11 81 -1
11 83 1
11 84 1
11 85 1
11 86 -1
11 88 -1
11 95 1
11 96 -1
11 99 -1
11 100 -1
12 13 -1
12 15 -1
12 18 -1
12 22 1
12 24 -1
12 25 -1
12 28 1
12 29 -1
12 31 -1
12 33 1
12 34 1
12 36 -1
12 42 1
12 44 -1
12 45 1
12 47 -1
12 51 -1
12 52 -1
12 53 -1
12 56 1
12 59 1
12 64 -1
12 65 -1
12 73 -1
12 74 -1
12 76 1
12 79 1
12 81 1
12 82 -1
12 84 1
12 85 -1
12 86 -1
12 87 -1
12 88 1
12 90 -1
12 93 -1
12 97 1
12 98 1
13 15 -1
13 20 -1
13 21 -1
13 23 1
13 24 -1
13 27 1
13 28 1
13 31 1
13 35 -1
13 36 -1
13 37 1
13 38 -1
13 40 -1
13 41 -1
13 47 1
13 49 -1
13 52 -1
13 53 1
13 56 1
13 58 1
13 60 1
13 61 -1
13 62 1
13 65 -1
13 66 -1
13 70 -1
13 73 -1
13 75 -1
13 76 -1
13 77 -1
13 80 1
13 83 1
13 84 1
13 85 1
13 86 1
13 87 -1
13 88 1
13 89 1
13 91 -1
13 96 1
14 15 1
14 17 -1
14 22 1
14 24 1
14 25 1
14 28 -1
14 30 1
14 31 1
14 32 -1
14 33 1
14 34 1
14 36 -1
14 40 1
14 41 1
14 43 1
14 45 1
14 51 -1
14 52 1
14 53 1
14 54 1
14 55 -1
14 61 1
14 63 -1
14 64 -1
14 65 -1
14 66 -1
14 70 -1
14 74 1
14 76 -1
14 81 -1
14 85 -1
14 86 1
14 87 1
14 89 1
14 90 -1
14 93 -1
14 95 -1
14 97 -1
14 99 1
14 100 1
15 17 -1
15 19 1
15 20 -1
15 22 1
15 26 -1
15 28 1
15 29 -1
15 30 1
15 31 -1
15 33 1
15 34 -1
15 38 1
15 39 1
15 40 -1
15 41 -1
15 42 1
15 43 1
15 45 1
15 49 1
15 51 -1
15 55 1
15 57 -1
15 58 1
15 59 -1
15 61 -1
15 64 1
15 65 -1
15 69 1
15 70 -1
15 71 -1
15 73 1
15 76 -1
15 77 -1
15 81 1
15 84 1
15 86 1
15 87 1
15 88 1
15 89 1
15 95 1
15 96 -1
15 97 -1
16 17 1
16 18 -1
16 20 1
16 21 1
16 23 1
16 27 -1
16 31 1
16 36 1
16 40 1
16 44 1
16 45 -1
16 47 -1
16 48 1
16 49 1
16 51 1
16 52 1
16 53 -1
16 54 -1
16 56 1
16 57 -1
16 60 -1
16 63 1
16 65 1
16 67 -1
16 69 1
16 71 -1
16 74 -1
16 78 1
16 81 -1
16 82 -1
16 83 -1
16 85 -1
16 86 -1
16 93 -1
16 95 1
16 96 -1
16 97 1
16 98 1
17 18 1
17 19 1
17 20 1
17 22 1
17 24 1
17 25 1
17 26 -1
17 27 1
17 28 -1
17 29 -1
17 31 -1
17 32 1
17 33 1
17 34 -1
17 37 1
17 38 1
17 40 -1
17 41 1
17 43 -1
17 44 1
17 45 1
17 47 1
17 48 1
17 49 -1
17 50 -1
17 51 -1
17 52 1
17 53 1
17 55 -1
17 57 1
17 58 1
17 60 1
17 61 -1
17 64 1
17 66 1
17 68 -1
17 70 -1
17 71 1
17 75 1
17 78 1
17 80 -1
17 89 1
17 90 -1
17 93 -1
17 95 -1
18 19 1
18 20 -1
18 23 -1
18 25 -1
18 27 -1
18 28 1
18 29 -1
18 33 1
18 38 -1
18 41 1
18 44 -1
18 45 1
18 46 1
18 47 1
18 52 -1
18 53 -1
18 55 -1
18 57 -1
18 58 1
18 64 1
18 66 1
18 68 -1
18 72 -1
18 74 1
18 77 1
18 78 -1
18 79 -1
18 81 -1
18 83 1
18 84 1
18 85 -1
18 89 1
18 93 1
18 95 1
18 96 -1
18 98 -1
19 20 1
19 21 -1
19 25 1
19 26 1
19 29 1
19 31 1
19 33 -1
19 35 1
19 36 1
19 38 1
19 40 -1
19 42 1
19 43 1
19 44 1
19 45 1
19 46 1
19 48 -1
19 57 1
19 60 1
19 61 -1
19 62 -1
19 63 1
19 64 1
19 65 -1
19 66 1
19 67 1
19 71 -1
19 72 -1
19 73 1
19 75 -1
19 76 1
19 78 1
19 80 -1
19 81 1
19 82 1
19 83 1
19 85 1
19 86 1
19 89 1
19 90 1
19 91 -1
19 92 -1
19 96 -1
19 100 -1
20 21 -1
20 23 -1
20 24 -1
20 26 -1
20 29 -1
20 30 -1
20 34 1
20 35 1
20 38 1
20 39 1
20 40 -1
20 43 -1
20 45 -1
20 46 1
20 47 1
20 48 -1
20 49 -1
20 50 -1
20 51 -1
20 52 1
20 53 1
20 55 1
20 56 1
20 57 -1
20 59 -1
20 61 1
20 63 1
20 69 -1
20 74 1
20 77 1
20 79 1
20 80 1
20 81 -1
20 82 -1
20 83 1
20 84 1
20 86 1
20 87 1
20 88 1
20 90 1
20 94 -1
20 96 1
20 97 -1
20 98 1
21 22 1
21 26 -1
21 28 1
21 30 -1
21 31 1
21 32 1
21 34 -1
21 36 1
21 38 1
21 40 -1
21 42 1
21 44 -1
21 45 1
21 47 -1
21 50 -1
21 51 1
21 53 1
21 58 -1
21 61 -1
21 67 -1
21 69 1
21 72 -1
21 73 -1
21 74 -1
21 76 1
21 77 -1
21 78 1
21 81 -1
21 84 1
21 85 -1
21 86 -1
21 87 -1
21 88 -1
21 89 1
21 90 1
21 91 -1
21 92 -1
21 96 1
22 23 -1
22 26 -1
22 27 1
22 28 1
22 31 1
22 32 -1
22 33 1
22 35 1
22 36 1
22 37 -1
22 40 -1
22 41 -1
22 43 1
22 45 -1
22 48 -1
22 53 1
22 54 1
22 55 1
22 58 -1
22 59 1
22 60 1
22 62 -1
22 63 -1
22 64 -1
22 65 1
22 66 1
22 67 1
22 69 1
22 70 -1
22 72 -1
22 73 1
22 78 -1
22 79 -1
22 81 1
22 82 -1
22 86 -1
22 91 1
22 93 -1
22 94 1
22 95 -1
22 100 1
23 26 -1
23 29 1
23 30 1
23 38 1
23 40 1
23 42 -1
23 43 1
23 44 1
23 45 1
23 47 1
23 48 -1
23 50 -1
23 51 1
23 55 -1
23 56 1
23 57 -1
23 59 -1
23 61 1
23 62 -1
23 64 1
23 67 -1
23 68 1
23 71 1
23 72 -1
23 73 -1
23 74 1
23 75 1
23 80 -1
23 84 1
23 87 -1
23 94 -1
23 96 1
23 97 -1
23 98 1
23 99 -1
23 100 1
24 25 -1
24 30 -1
24 31 -1
24 32 -1
24 34 1
24 37 1
24 38 -1
24 39 1
24 44 -1
24 45 -1
24 47 -1
24 48 -1
24 53 1
24 58 -1
24 62 1
24 63 1
24 65 1
24 67 1
24 73 -1
24 77 1
24 80 -1
24 81 1
24 82 1
24 85 -1
24 87 1
24 92 -1
24 94 -1
24 96 1
24 97 -1
24 98 -1
25 27 1
25 31 1
25 32 -1
25 33 -1
25 35 -1
25 37 -1
25 39 -1
25 43 -1
25 44 -1
25 45 -1
25 49 1
25 51 -1
25 57 -1
25 58 -1
25 65 1
25 66 -1
25 68 -1
25 69 1
25 71 1
25 77 -1
25 78 -1
25 79 -1
25 80 -1
25 81 -1
25 85 1
25 87 1
25 89 1
25 90 -1
25 91 1
25 94 -1
25 97 1
25 99 -1
25 100 -1
26 27 -1
26 29 -1
26 31 -1
26 34 -1
26 35 -1
26 36 1
26 37 -1
26 38 1
26 40 -1
26 41 -1
26 42 -1
26 44 1
26 46 1
26 48 1
26 52 -1
26 53 1
26 56 -1
26 57 -1
26 59 -1
26 61 -1
26 63 1
26 65 1
26 67 -1
26 68 1
26 69 -1
26 70 -1
26 72 1
26 76 1
26 78 -1
26 80 1
26 83 -1
26 86 1
26 87 -1
26 88 1
26 89 1
26 96 -1
26 97 1
26 98 -1
26 100 -1
27 30 1
27 31 1
27 32 1
27 36 -1
27 37 -1
27 39 -1
27 41 -1
27 42 -1
27 46 -1
27 49 1
27 50 -1
27 52 -1
27 53 -1
27 54 1
27 55 1
27 56 1
27 57 1
27 58 1
27 60 1
27 64 -1
27 65 1
27 67 1
27 68 1
27 75 1
27 77 1
27 79 -1
27 80 -1
27 84 1
27 87 -1
27 90 1
27 91 -1
27 93 1
27 96 1
27 97 1
27 98 1
28 29 -1
28 31 -1
28 32 1
28 35 -1
28 40 1
28 41 -1
28 45 1
28 47 1
28 48 -1
28 50 -1
28 51 -1
28 52 1
28 53 -1
28 56 -1
28 58 1
28 59 -1
28 60 1
28 63 -1
28 64 -1
28 65 1
28 67 1
28 69 1
28 74 -1
28 76 1
28 79 -1
28 80 -1
28 81 -1
28 82 -1
28 84 -1
28 85 1
28 86 -1
28 87 -1
28 88 1
28 90 -1
28 94 -1
28 96 -1
28 97 -1
28 99 -1
29 30 -1
29 31 1
29 33 1
29 34 -1
29 35 -1
29 36 1
29 37 1
29 41 1
29 44 1
29 49 1
29 50 -1
29 52 1
29 54 -1
29 55 1
29 56 -1
29 58 -1
29 60 -1
29 61 -1
29 62 1
29 65 1
29 66 -1
29 72 -1
29 73 -1
29 75 1
29 80 -1
29 81 1
29 82 1
29 86 -1
29 88 1
29 91 -1
29 92 1
29 93 -1
29 94 1
29 95 -1
29 100 1
30 33 1
30 34 1
30 36 1
30 37 -1
30 39 -1
30 40 -1
30 41 -1
30 42 -1
30 44 1
30 45 1
30 47 -1
30 48 -1
30 50 -1
30 51 1
30 54 1
30 55 -1
30 56 -1
30 58 1
30 60 -1
30 61 -1
30 62 1
30 63 1
30 64 1
30 68 -1
30 69 1
30 70 1
30 72 -1
30 77 1
30 78 1
30 81 -1
30 84 1
30 86 -1
30 87 -1
30 88 1
30 89 1
30 95 -1
30 97 1
30 98 -1
30 99 -1
30 100 1
31 32 1
31 34 1
31 37 1
31 38 1
31 42 -1
31 44 -1
31 45 1
31 49 -1
31 50 -1
31 51 -1
31 52 1
31 53 1
31 54 -1
31 58 1
31 59 -1
31 60 1
31 61 -1
31 63 1
31 66 -1
31 68 1
31 71 -1
31 72 1
31 73 -1
31 75 1
31 79 -1
31 81 1
31 85 1
31 86 1
31 88 1
31 89 1
31 90 1
31 91 1
31 94 -1
31 95 1
31 96 1
31 99 1
31 100 1
32 34 -1
32 36 1
32 38 1
32 41 1
32 43 -1
32 45 1
32 47 -1
32 48 -1
32 51 1
32 52 -1
32 55 -1
32 57 1
32 58 -1
32 59 -1
32 61 -1
32 62 -1
32 64 1
32 65 1
32 66 1
32 70 1
32 71 -1
32 72 1
32 73 -1
32 77 1
32 79 1
32 80 -1
32 81 -1
32 84 1
32 85 -1
32 86 -1
32 87 1
32 90 1
32 92 -1
32 95 1
32 97 1
32 98 1
32 99 1
32 100 -1
33 37 -1
33 38 1
33 39 1
33 40 -1
33 41 1
33 42 -1
33 45 1
33 48 1
33 51 -1
33 52 1
33 55 1
33 56 1
33 57 1
33 59 -1
33 62 1
33 66 1
33 69 -1
33 71 -1
33 76 1
33 77 1
33 78 1
33 79 -1
33 80 1
33 81 -1
33 82 -1
33 84 1
33 86 -1
33 87 -1
33 89 1
33 91 1
33 92 1
33 93 -1
33 94 -1
33 95 1
33 98 -1
33 99 1
34 36 -1
34 38 1
34 40 -1
34 44 1
34 46 1
34 49 1
34 50 -1
34 52 1
34 55 1
34 56 1
34 58 1
34 64 -1
34 65 1
34 68 -1
34 71 1
34 72 1
34 73 1
34 74 1
34 76 -1
34 80 1
34 81 1
34 83 1
34 87 1
34 88 -1
34 90 -1
34 91 1
34 93 -1
34 94 1
34 99 -1
35 36 1
35 42 -1
35 45 1
35 47 -1
35 48 -1
35 50 -1
35 53 1
35 55 1
35 56 1
35 57 1
35 59 1
35 60 -1
35 61 -1
35 62 1
35 64 1
35 66 -1
35 68 1
35 69 -1
35 71 1
35 72 -1
35 74 -1
35 75 1
35 79 1
35 81 1
35 84 1
35 86 1
35 88 -1
35 91 -1
35 93 1
35 96 -1
35 97 1
35 98 -1
36 37 -1
36 38 -1
36 40 1
36 42 -1
36 43 1
36 46 -1
36 49 1
36 52 1
36 53 1
36 54 1
36 55 1
36 57 1
36 58 1
36 59 -1
36 63 -1
36 64 1
36 72 -1
36 74 -1
36 81 1
36 84 1
36 86 1
36 87 1
36 89 1
36 98 1
37 38 1
37 39 1
37 43 1
37 44 1
37 45 -1
37 49 1
37 51 1
37 53 -1
37 56 -1
37 57 1
37 58 1
37 59 1
37 61 1
37 62 -1
37 66 -1
37 67 1
37 68 -1
37 69 1
37 71 1
37 72 1
37 73 1
37 75 1
37 76 1
37 77 1
37 80 1
37 82 -1
37 86 1
37 93 1
37 94 -1
37 96 1
37 97 -1
37 98 1
37 99 1
38 40 1
38 41 -1
38 45 -1
38 46 1
38 47 1
38 48 -1
38 51 -1
38 52 1
38 53 -1
38 54 1
38 55 -1
38 56 -1
38 58 1
38 59 1
38 60 -1
38 62 1
38 64 1
38 67 1
38 68 -1
38 73 -1
38 75 -1
38 76 1
38 78 1
38 79 -1
38 82 -1
38 83 -1
38 84 -1
38 85 -1
38 87 -1
38 91 -1
38 93 -1
38 95 1
38 97 -1
39 43 -1
39 44 -1
39 46 1
39 47 1
39 48 1
39 49 -1
39 51 1
39 52 1
39 54 1
39 55 1
39 57 1
39 59 -1
39 60 -1
39 61 1
39 63 1
39 64 -1
39 67 -1
39 69 -1
39 70 1
39 73 -1
39 75 1
39 76 1
39 77 -1
39 78 -1
39 80 1
39 82 -1
39 84 1
39 85 1
39 90 -1
39 92 1
39 93 -1
39 94 -1
39 99 1
40 42 -1
40 43 1
40 46 -1
40 47 1
40 48 -1
40 51 1
40 54 1
40 55 1
40 57 1
40 60 -1
40 61 -1
40 62 -1
40 67 1
40 68 1
40 69 -1
40 71 1
40 73 1
40 74 -1
40 75 -1
40 76 -1
40 77 -1
40 78 -1
40 81 1
40 82 -1
40 83 -1
40 93 -1
40 94 1
40 95 -1
40 96 -1
40 99 -1
40 100 1
41 43 1
41 44 1
41 45 1
41 47 1
41 48 -1
41 50 1
41 52 1
41 54 -1
41 55 -1
41 60 -1
41 61 1
41 63 1
41 64 1
41 68 1
41 71 1
41 73 1
41 75 1
41 77 -1
41 78 -1
41 80 -1
41 81 1
41 82 1
41 83 -1
41 84 -1
41 85 1
41 90 -1
41 93 1
41 96 -1
41 98 -1
42 43 -1
42 48 1
42 51 -1
42 53 -1
42 55 -1
42 57 1
42 59 1
42 62 -1
42 67 1
42 69 -1
42 70 -1
42 72 -1
42 74 1
42 81 1
42 82 1
42 84 -1
42 86 1
42 87 -1
42 88 1
42 89 -1
42 91 -1
42 92 1
42 93 1
42 96 1
42 98 -1
42 99 1
42 100 1
43 44 1
43 47 1
43 48 1
43 51 1
43 52 -1
43 53 -1
43 54 -1
43 57 1
43 61 -1
43 64 -1
43 66 1
43 68 1
43 70 1
43 73 1
43 74 1
43 76 1
43 78 -1
43 79 1
43 81 -1
43 83 1
43 86 1
43 87 -1
43 90 1
43 91 -1
43 92 1
43 93 -1
43 94 -1
43 95 -1
43 100 1
44 46 1
44 49 1
44 50 1
44 52 1
44 54 -1
44 57 -1
44 59 -1
44 61 1
44 64 -1
44 65 1
44 66 1
44 68 -1
44 69 1
44 70 -1
44 72 1
44 74 -1
44 77 1
44 78 -1
44 79 1
44 83 1
44 85 -1
44 86 1
44 89 1
44 90 -1
44 91 1
44 94 1
44 95 -1
44 98 -1
44 99 -1
44 100 1
45 46 -1
45 48 1
45 49 -1
45 50 1
45 51 -1
45 54 1
45 55 -1
45 56 -1
45 58 -1
45 59 -1
45 64 -1
45 65 1
45 67 -1
45 68 -1
45 69 1
45 71 1
45 72 1
45 73 -1
45 75 1
45 77 1
45 80 -1
45 83 -1
45 84 1
45 85 -1
45 87 1
45 90 -1
45 91 1
45 92 1
45 93 -1
45 95 -1
45 97 1
45 100 -1
46 47 -1
46 48 1
46 50 -1
46 57 1
46 58 -1
46 60 -1
46 62 1
46 63 -1
46 65 1
46 66 -1
46 71 -1
46 72 -1
46 75 -1
46 77 -1
46 79 -1
46 80 1
46 81 -1
46 87 -1
46 89 -1
46 95 -1
46 96 1
46 97 1
47 55 1
47 58 1
47 59 1
47 60 -1
47 61 -1
47 62 -1
47 63 1
47 64 1
47 65 1
47 67 1
47 68 1
47 69 -1
47 70 1
47 71 -1
47 72 1
47 73 1
47 74 1
47 75 -1
47 76 1
47 79 1
47 81 -1
47 83 1
47 84 1
47 87 -1
47 91 -1
47 92 1
47 93 -1
47 94 1
47 96 -1
47 97 1
47 98 1
47 100 1
48 49 -1
48 50 1
48 52 1
48 53 -1
48 55 1
48 56 1
48 57 1
48 61 -1
48 62 -1
48 64 -1
48 65 -1
48 68 -1
48 73 -1
48 74 1
48 75 1
48 77 1
48 78 -1
48 79 -1
48 82 -1
48 84 1
48 87 1
48 88 1
48 90 -1
48 93 -1
48 95 1
48 97 1
48 98 1
48 99 1
48 100 -1
49 53 -1
49 58 1
49 61 -1
49 63 1
49 67 -1
49 69 1
49 70 1
49 71 -1
49 72 1
49 76 -1
49 77 1
49 78 -1
49 80 1
49 81 -1
49 83 1
49 84 1
49 85 1
49 87 1
49 88 1
49 90 1
49 91 -1
49 93 -1
49 97 -1
50 52 -1
50 57 1
50 59 1
50 60 1
50 61 -1
50 68 1
50 69 1
50 71 1
50 72 1
50 75 -1
50 77 -1
50 78 1
50 80 -1
50 81 -1
50 82 -1
50 84 1
50 86 -1
50 90 1
50 95 -1
50 96 -1
50 97 1
50 98 1
50 100 1
51 52 -1
51 53 1
51 54 1
51 55 -1
51 56 -1
51 57 1
51 60 -1
51 61 -1
51 64 1
51 67 -1
51 68 1
51 69 -1
51 70 -1
51 71 -1
51 72 1
51 73 -1
51 74 -1
51 75 -1
51 76 1
51 80 1
51 81 -1
51 82 -1
51 87 1
51 89 -1
51 90 1
51 91 1
51 95 -1
51 97 -1
51 100 1
52 54 -1
52 56 -1
52 61 -1
52 62 1
52 63 -1
52 65 1
52 66 1
52 73 1
52 74 1
52 76 -1
52 77 1
52 79 -1
52 80 1
52 83 -1
52 85 1
52 86 1
52 87 -1
52 88 1
52 94 -1
52 95 1
52 96 1
52 99 -1
53 59 -1
53 60 1
53 61 -1
53 65 1
53 70 1
53 73 -1
53 74 1
53 75 1
53 77 -1
53 80 -1
53 82 1
53 84 1
53 87 -1
53 88 1
53 89 -1
53 90 -1
53 91 1
53 92 -1
53 94 -1
53 96 -1
53 98 1
53 100 -1
54 55 -1
54 63 -1
54 64 1
54 66 1
54 67 1
54 68 -1
54 69 1
54 70 -1
54 71 1
54 72 -1
54 74 -1
54 75 -1
54 77 1
54 78 1
54 79 -1
54 80 -1
54 87 1
54 90 1
54 91 -1
54 94 -1
54 97 -1
54 99 -1
54 100 -1
55 56 -1
55 57 1
55 60 1
55 61 -1
55 65 1
55 67 1
55 70 -1
55 71 1
55 73 -1
55 74 1
55 77 1
55 79 1
55 83 -1
55 86 1
55 87 -1
55 89 -1
55 90 1
55 92 -1
55 93 -1
55 94 1
55 95 1
55 96 1
55 97 1
56 58 1
56 59 -1
56 62 1
56 65 1
56 66 -1
56 67 1
56 70 -1
56 71 -1
56 79 -1
56 80 1
56 81 -1
56 83 -1
56 87 -1
56 90 -1
56 93 -1
56 98 1
57 58 -1
57 59 1
57 62 1
57 64 1
57 66 -1
57 67 -1
57 71 -1
57 75 -1
57 76 -1
57 77 1
57 78 1
57 79 1
57 80 -1
57 81 -1
57 83 1
57 85 -1
57 86 1
57 90 1
57 91 1
57 92 -1
57 93 -1
57 94 -1
57 97 1
57 99 1
57 100 1
58 59 1
58 60 1
58 61 -1
58 64 -1
58 65 -1
58 66 1
58 69 -1
58 71 1
58 73 -1
58 77 -1
58 80 1
58 83 -1
58 84 1
58 87 1
58 89 -1
58 91 -1
58 96 1
58 97 1
58 98 1
58 99 1
59 61 -1
59 65 1
59 67 -1
59 69 1
59 72 1
59 73 -1
59 74 -1
59 76 1
59 78 -1
59 80 -1
59 86 1
59 93 1
59 94 1
59 97 1
59 98 -1
59 99 -1
59 100 1
60 61 -1
60 62 -1
60 68 1
60 69 1
60 71 -1
60 72 1
60 75 1
60 77 1
60 79 -1
60 80 -1
60 83 1
60 84 -1
60 87 -1
60 89 1
60 93 1
60 94 1
60 95 1
60 96 1
60 97 1
61 64 -1
61 65 1
61 66 1
61 68 -1
61 71 1
61 72 1
61 73 1
61 74 1
61 76 1
61 77 1
61 79 -1
61 81 1
61 84 -1
61 88 1
61 89 1
61 90 -1
61 92 1
61 96 1
61 98 1
61 100 1
62 65 -1
62 66 -1
62 68 1
62 70 1
62 71 -1
62 72 -1
62 73 -1
62 74 -1
62 78 -1
62 80 -1
62 83 -1
62 84 1
62 86 1
62 90 1
62 91 -1
62 96 1
62 99 -1
62 100 1
63 64 -1
63 67 -1
63 68 -1
63 69 -1
63 70 1
63 72 -1
63 73 -1
63 74 -1
63 76 -1
63 79 -1
63 80 -1
63 81 -1
63 85 1
63 87 -1
63 89 1
63 92 -1
63 96 -1
64 65 1
64 67 -1
64 69 -1
64 71 -1
64 72 -1
64 73 -1
64 74 1
64 76 -1
64 83 1
64 87 -1
64 93 -1
64 98 -1
64 99 1
65 67 -1
65 68 -1
65 69 -1
65 70 1
65 75 1
65 78 -1
65 81 -1
65 84 -1
65 85 -1
65 89 -1
65 90 -1
65 92 1
65 95 -1
65 98 1
66 69 1
66 70 -1
66 71 1
66 74 1
66 75 -1
66 76 -1
66 78 1
66 81 1
66 82 1
66 83 -1
66 89 -1
66 90 1
66 91 1
66 94 1
66 96 -1
66 100 1
67 68 -1
67 70 1
67 72 1
67 74 1
67 75 1
67 82 -1
67 85 1
67 87 -1
67 88 -1
67 90 -1
67 93 1
67 94 -1
67 95 1
67 97 -1
67 99 -1
68 73 -1
68 76 -1
68 78 -1
68 79 -1
68 80 1
68 81 1
68 82 -1
68 83 1
68 85 -1
68 86 1
68 87 -1
68 90 -1
68 94 -1
68 96 1
69 70 1
69 73 1
69 76 1
69 78 -1
69 79 -1
69 81 -1
69 82 1
69 87 1
69 89 -1
69 94 -1
69 95 -1
69 96 1
69 99 1
70 71 -1
70 72 1
70 73 1
70 74 1
70 77 1
70 79 1
70 81 -1
70 82 1
70 83 1
70 85 1
70 88 -1
70 91 1
70 93 -1
70 95 -1
70 96 -1
70 97 -1
70 98 1
70 100 1
71 73 -1
71 74 -1
71 76 1
71 77 1
71 79 1
71 80 1
71 89 -1
71 91 1
71 93 -1
71 95 1
71 96 -1
71 97 -1
71 99 -1
71 100 -1
72 73 -1
72 74 1
72 75 -1
72 76 1
72 78 1
72 80 -1
72 81 -1
72 82 -1
72 84 -1
72 85 -1
72 89 1
72 93 -1
72 95 1
72 96 1
72 97 1
73 74 -1
73 75 1
73 76 -1
73 77 1
73 80 -1
73 81 -1
73 83 -1
73 87 1
73 88 -1
73 89 -1
73 90 1
73 92 -1
73 93 -1
73 95 1
73 97 1
73 98 -1
73 99 1
73 100 -1
74 77 -1
74 78 -1
74 80 -1
74 81 1
74 84 1
74 90 -1
74 95 1
74 97 1
74 98 1
74 99 -1
75 76 1
75 78 1
75 81 -1
75 83 1
75 84 -1
75 85 1
75 86 1
75 90 -1
75 96 1
75 98 1
75 100 1
76 77 1
76 80 1
76 83 -1
76 85 1
76 86 -1
76 89 1
76 95 1
76 96 -1
76 97 -1
76 98 1
77 79 1
77 80 1
77 81 1
77 85 1
77 87 -1
77 88 1
77 89 -1
77 91 1
77 95 1
77 97 1
77 100 1
78 79 -1
78 80 1
78 84 1
78 85 -1
78 91 -1
78 92 1
78 93 1
78 94 1
79 81 -1
79 82 -1
79 83 1
79 89 1
79 92 -1
79 93 1
79 94 1
79 100 -1
80 82 -1
80 84 -1
80 88 -1
80 91 1
80 92 1
80 93 -1
80 95 1
80 96 -1
80 99 1
81 84 -1
81 85 1
81 87 -1
81 88 1
81 92 1
81 93 -1
81 99 1
81 100 -1
82 83 1
82 85 1
82 86 1
82 93 1
82 97 1
82 98 1
82 99 -1
83 85 -1
83 87 1
83 89 1
83 90 -1
83 93 1
83 95 -1
83 96 1
83 98 1
83 99 -1
84 90 -1
84 91 1
84 92 -1
84 95 1
84 96 1
85 91 -1
85 93 -1
85 95 1
85 98 1
86 88 1
86 91 1
86 92 -1
86 93 -1
86 96 1
86 99 -1
87 89 1
87 90 -1
87 94 -1
87 96 1
87 97 -1
87 98 -1
87 100 1
88 89 1
88 91 1
88 93 -1
88 95 -1
88 97 -1
89 91 1
89 94 -1
89 96 -1
89 97 -1
89 98 1
90 91 -1
90 98 -1
90 100 1
91 92 1
91 93 1
91 94 -1
91 96 -1
91 100 -1
92 94 1
92 95 -1
92 96 1
93 95 1
93 96 1
93 98 1
94 95 -1
94 99 1
94 100 -1
95 96 1
95 98 1
95 99 -1
95 100 1
96 97 -1
96 98 -1
98 99 1
98 100 -1
99 100 -1
